/* Objective Function */
min: 622xa1 + 614xa2 + 630xa3 + 641xb1 + 645xb2 + 649xb3;

/* Constraints */
xa1 + xa2 + xa3 + xa4= 100;  
xb1 + xb2 + xb3 + xb4= 120;  
xa1 + xb1 = 80;  
xa2 + xb2 = 60;  
xa3 + xb3 = 70;  
xa4 + xb4 = 10;